NAME : OMNETRUN
COMMENT : 524.61
TYPE : CVRP
DIMENSION : 21
EDGE_WEIGHT_TYPE : EUC_2D
CAPACITY : 21
NODE_COORD_SECTION
1 0.107093 -0.77924
2 95.3255 -1073.34
3 13.9831 -1668.87
4 140.329 -2554.23
5 250.031 -4276.66
6 82.1927 -4998.61
7 65.7475 -5957.95
8 475.129 -1580.78
9 402.325 -1957.68
10 324.507 -3345.08
11 454.964 -3749.73
12 456.267 -5388.75
13 562.872 -699.567
14 738.444 -1153.15
15 512.651 -2808.2
16 531.168 -4486.81
17 682.398 -5907.1
18 815.103 -45.1492
19 777.982 -1768.36
20 878.685 -2518.11
21 928.043 -3328.94
DEMAND_SECTION
1 0
2 1
3 1
4 1
5 1
6 1
7 1
8 1
9 1
10 1
11 1
12 1
13 1
14 1
15 1
16 1
17 1
18 1
19 1
20 1
21 1
DEPOT_SECTION
1
-1
EOF
